/* Objective function */
min: +C26 +C27 +C28 +C29 +C30;

/* Constraints */
+10 C1 +2 C2 +17 C3 +13 C4 +4 C5 -20 C26 <= 0;
+10 C6 +2 C7 +17 C8 +13 C9 +4 C10 -20 C27 <= 0;
+10 C11 +2 C12 +17 C13 +13 C14 +4 C15 -20 C28 <= 0;
+10 C16 +2 C17 +17 C18 +13 C19 +4 C20 -20 C29 <= 0;
+10 C21 +2 C22 +17 C23 +13 C24 +4 C25 -20 C30 <= 0;
+5 C1 +3 C2 +10 C3 +C4 +9 C5 -11 C26 <= 0;
+5 C6 +3 C7 +10 C8 +C9 +9 C10 -11 C27 <= 0;
+5 C11 +3 C12 +10 C13 +C14 +9 C15 -11 C28 <= 0;
+5 C16 +3 C17 +10 C18 +C19 +9 C20 -11 C29 <= 0;
+5 C21 +3 C22 +10 C23 +C24 +9 C25 -11 C30 <= 0;
+C1 +C6 +C11 +C16 +C21 = 1;
+C2 +C7 +C12 +C17 +C22 = 1;
+C3 +C8 +C13 +C18 +C23 = 1;
+C4 +C9 +C14 +C19 +C24 = 1;
+C5 +C10 +C15 +C20 +C25 = 1;

/* Variable bounds */
C1 <= 1;
C2 <= 1;
C3 <= 1;
C4 <= 1;
C5 <= 1;
C6 <= 1;
C7 <= 1;
C8 <= 1;
C9 <= 1;
C10 <= 1;
C11 <= 1;
C12 <= 1;
C13 <= 1;
C14 <= 1;
C15 <= 1;
C16 <= 1;
C17 <= 1;
C18 <= 1;
C19 <= 1;
C20 <= 1;
C21 <= 1;
C22 <= 1;
C23 <= 1;
C24 <= 1;
C25 <= 1;
C26 <= 1;
C27 <= 1;
C28 <= 1;
C29 <= 1;
C30 <= 1;

/* Integer definitions */
int C1,C2,C3,C4,C5,C6,C7,C8,C9,C10,C11,C12,C13,C14,C15,C16,C17,C18,C19,C20,C21,C22,C23,C24,C25,C26,C27,C28,C29,C30;
